60

 0  10  20  30  14  14  14  14  41  41  41  41  51  61  20  20  22  36  45  54  54  30  36  42  42  50  58  58  67  67  41  41  41  41  50  50  57  64  64  72  72  50  50  51  58  58  64  60  60  60  60  61  61  63  67  67  67  72  72  78  
10   0  10  20  10  10  10  10  32  32  32  32  41  51  22  22  20  28  36  45  45  32  32  36  36  42  50  50  58  58  40  40  40  40  45  45  50  57  57  64  64  51  51  50  54  54  58  61  61  61  61  60  60  61  63  63  63  67  67  72  
20  10   0  10  14  14  14  14  22  22  22  22  32  41  28  28  22  22  28  36  36  36  30  32  32  36  42  42  50  50  41  41  41  41  41  41  45  50  50  57  57  54  54  51  51  51  54  63  63  63  63  61  61  60  61  61  61  63  63  67  
30  20  10   0  22  22  22  22  14  14  14  14  22  32  36  36  28  20  22  28  28  42  32  30  30  32  36  36  42  42  45  45  45  45  40  40  41  45  45  50  50  58  58  54  50  50  51  67  67  67  67  63  63  61  60  60  60  61  61  63  
14  10  14  22   0   0   0   0  30  30  30  30  40  50  14  14  10  22  32  41  41  22  22  28  28  36  45  45  54  54  30  30  30  30  36  36  42  50  50  58  58  41  41  40  45  45  50  51  51  51  51  50  50  51  54  54  54  58  58  64  
14  10  14  22   0   0   0   0  30  30  30  30  40  50  14  14  10  22  32  41  41  22  22  28  28  36  45  45  54  54  30  30  30  30  36  36  42  50  50  58  58  41  41  40  45  45  50  51  51  51  51  50  50  51  54  54  54  58  58  64  
14  10  14  22   0   0   0   0  30  30  30  30  40  50  14  14  10  22  32  41  41  22  22  28  28  36  45  45  54  54  30  30  30  30  36  36  42  50  50  58  58  41  41  40  45  45  50  51  51  51  51  50  50  51  54  54  54  58  58  64  
14  10  14  22   0   0   0   0  30  30  30  30  40  50  14  14  10  22  32  41  41  22  22  28  28  36  45  45  54  54  30  30  30  30  36  36  42  50  50  58  58  41  41  40  45  45  50  51  51  51  51  50  50  51  54  54  54  58  58  64  
41  32  22  14  30  30  30  30   0   0   0   0  10  20  41  41  32  14  10  14  14  45  28  22  22  20  22  22  28  28  42  42  42  42  32  32  30  32  32  36  36  57  57  50  41  41  40  64  64  64  64  58  58  54  51  51  51  50  50  51  
41  32  22  14  30  30  30  30   0   0   0   0  10  20  41  41  32  14  10  14  14  45  28  22  22  20  22  22  28  28  42  42  42  42  32  32  30  32  32  36  36  57  57  50  41  41  40  64  64  64  64  58  58  54  51  51  51  50  50  51  
41  32  22  14  30  30  30  30   0   0   0   0  10  20  41  41  32  14  10  14  14  45  28  22  22  20  22  22  28  28  42  42  42  42  32  32  30  32  32  36  36  57  57  50  41  41  40  64  64  64  64  58  58  54  51  51  51  50  50  51  
41  32  22  14  30  30  30  30   0   0   0   0  10  20  41  41  32  14  10  14  14  45  28  22  22  20  22  22  28  28  42  42  42  42  32  32  30  32  32  36  36  57  57  50  41  41  40  64  64  64  64  58  58  54  51  51  51  50  50  51  
51  41  32  22  40  40  40  40  10  10  10  10   0  10  51  51  41  22  14  10  10  54  36  28  28  22  20  20  22  22  50  50  50  50  36  36  32  30  30  32  32  64  64  57  45  45  41  71  71  71  71  64  64  58  54  54  54  51  51  50  
61  51  41  32  50  50  50  50  20  20  20  20  10   0  61  61  51  32  22  14  14  63  45  36  36  28  22  22  20  20  58  58  58  58  42  42  36  32  32  30  30  72  72  64  50  50  45  78  78  78  78  71  71  64  58  58  58  54  54  51  
20  22  28  36  14  14  14  14  41  41  41  41  51  61   0   0  10  30  40  50  50  10  22  32  32  41  51  51  61  61  22  22  22  22  36  36  45  54  54  63  63  30  30  32  42  42  50  40  40  40  40  41  41  45  50  50  50  57  57  64  
20  22  28  36  14  14  14  14  41  41  41  41  51  61   0   0  10  30  40  50  50  10  22  32  32  41  51  51  61  61  22  22  22  22  36  36  45  54  54  63  63  30  30  32  42  42  50  40  40  40  40  41  41  45  50  50  50  57  57  64  
22  20  22  28  10  10  10  10  32  32  32  32  41  51  10  10   0  20  30  40  40  14  14  22  22  32  41  41  51  51  20  20  20  20  28  28  36  45  45  54  54  32  32  30  36  36  42  41  41  41  41  40  40  41  45  45  45  50  50  57  
36  28  22  20  22  22  22  22  14  14  14  14  22  32  30  30  20   0  10  20  20  32  14  10  10  14  22  22  32  32  28  28  28  28  20  20  22  28  28  36  36  42  42  36  30  30  32  50  50  50  50  45  45  41  40  40  40  41  41  45  
45  36  28  22  32  32  32  32  10  10  10  10  14  22  40  40  30  10   0  10  10  41  22  14  14  10  14  14  22  22  36  36  36  36  22  22  20  22  22  28  28  50  50  42  32  32  30  57  57  57  57  50  50  45  41  41  41  40  40  41  
54  45  36  28  41  41  41  41  14  14  14  14  10  14  50  50  40  20  10   0   0  51  32  22  22  14  10  10  14  14  45  45  45  45  28  28  22  20  20  22  22  58  58  50  36  36  32  64  64  64  64  57  57  50  45  45  45  41  41  40  
54  45  36  28  41  41  41  41  14  14  14  14  10  14  50  50  40  20  10   0   0  51  32  22  22  14  10  10  14  14  45  45  45  45  28  28  22  20  20  22  22  58  58  50  36  36  32  64  64  64  64  57  57  50  45  45  45  41  41  40  
30  32  36  42  22  22  22  22  45  45  45  45  54  63  10  10  14  32  41  51  51   0  20  30  30  40  50  50  60  60  14  14  14  14  32  32  41  51  51  61  61  20  20  22  36  36  45  30  30  30  30  32  32  36  42  42  42  50  50  58  
36  32  30  32  22  22  22  22  28  28  28  28  36  45  22  22  14  14  22  32  32  20   0  10  10  20  30  30  40  40  14  14  14  14  14  14  22  32  32  41  41  28  28  22  22  22  28  36  36  36  36  32  32  30  32  32  32  36  36  42  
42  36  32  30  28  28  28  28  22  22  22  22  28  36  32  32  22  10  14  22  22  30  10   0   0  10  20  20  30  30  22  22  22  22  10  10  14  22  22  32  32  36  36  28  20  20  22  42  42  42  42  36  36  32  30  30  30  32  32  36  
42  36  32  30  28  28  28  28  22  22  22  22  28  36  32  32  22  10  14  22  22  30  10   0   0  10  20  20  30  30  22  22  22  22  10  10  14  22  22  32  32  36  36  28  20  20  22  42  42  42  42  36  36  32  30  30  30  32  32  36  
50  42  36  32  36  36  36  36  20  20  20  20  22  28  41  41  32  14  10  14  14  40  20  10  10   0  10  10  20  20  32  32  32  32  14  14  10  14  14  22  22  45  45  36  22  22  20  50  50  50  50  42  42  36  32  32  32  30  30  32  
58  50  42  36  45  45  45  45  22  22  22  22  20  22  51  51  41  22  14  10  10  50  30  20  20  10   0   0  10  10  41  41  41  41  22  22  14  10  10  14  14  54  54  45  28  28  22  58  58  58  58  50  50  42  36  36  36  32  32  30  
58  50  42  36  45  45  45  45  22  22  22  22  20  22  51  51  41  22  14  10  10  50  30  20  20  10   0   0  10  10  41  41  41  41  22  22  14  10  10  14  14  54  54  45  28  28  22  58  58  58  58  50  50  42  36  36  36  32  32  30  
67  58  50  42  54  54  54  54  28  28  28  28  22  20  61  61  51  32  22  14  14  60  40  30  30  20  10  10   0   0  51  51  51  51  32  32  22  14  14  10  10  63  63  54  36  36  28  67  67  67  67  58  58  50  42  42  42  36  36  32  
67  58  50  42  54  54  54  54  28  28  28  28  22  20  61  61  51  32  22  14  14  60  40  30  30  20  10  10   0   0  51  51  51  51  32  32  22  14  14  10  10  63  63  54  36  36  28  67  67  67  67  58  58  50  42  42  42  36  36  32  
41  40  41  45  30  30  30  30  42  42  42  42  50  58  22  22  20  28  36  45  45  14  14  22  22  32  41  41  51  51   0   0   0   0  20  20  30  40  40  50  50  14  14  10  22  22  32  22  22  22  22  20  20  22  28  28  28  36  36  45  
41  40  41  45  30  30  30  30  42  42  42  42  50  58  22  22  20  28  36  45  45  14  14  22  22  32  41  41  51  51   0   0   0   0  20  20  30  40  40  50  50  14  14  10  22  22  32  22  22  22  22  20  20  22  28  28  28  36  36  45  
41  40  41  45  30  30  30  30  42  42  42  42  50  58  22  22  20  28  36  45  45  14  14  22  22  32  41  41  51  51   0   0   0   0  20  20  30  40  40  50  50  14  14  10  22  22  32  22  22  22  22  20  20  22  28  28  28  36  36  45  
41  40  41  45  30  30  30  30  42  42  42  42  50  58  22  22  20  28  36  45  45  14  14  22  22  32  41  41  51  51   0   0   0   0  20  20  30  40  40  50  50  14  14  10  22  22  32  22  22  22  22  20  20  22  28  28  28  36  36  45  
50  45  41  40  36  36  36  36  32  32  32  32  36  42  36  36  28  20  22  28  28  32  14  10  10  14  22  22  32  32  20  20  20  20   0   0  10  20  20  30  30  32  32  22  10  10  14  36  36  36  36  28  28  22  20  20  20  22  22  28  
50  45  41  40  36  36  36  36  32  32  32  32  36  42  36  36  28  20  22  28  28  32  14  10  10  14  22  22  32  32  20  20  20  20   0   0  10  20  20  30  30  32  32  22  10  10  14  36  36  36  36  28  28  22  20  20  20  22  22  28  
57  50  45  41  42  42  42  42  30  30  30  30  32  36  45  45  36  22  20  22  22  41  22  14  14  10  14  14  22  22  30  30  30  30  10  10   0  10  10  20  20  41  41  32  14  14  10  45  45  45  45  36  36  28  22  22  22  20  20  22  
64  57  50  45  50  50  50  50  32  32  32  32  30  32  54  54  45  28  22  20  20  51  32  22  22  14  10  10  14  14  40  40  40  40  20  20  10   0   0  10  10  51  51  41  22  22  14  54  54  54  54  45  45  36  28  28  28  22  22  20  
64  57  50  45  50  50  50  50  32  32  32  32  30  32  54  54  45  28  22  20  20  51  32  22  22  14  10  10  14  14  40  40  40  40  20  20  10   0   0  10  10  51  51  41  22  22  14  54  54  54  54  45  45  36  28  28  28  22  22  20  
72  64  57  50  58  58  58  58  36  36  36  36  32  30  63  63  54  36  28  22  22  61  41  32  32  22  14  14  10  10  50  50  50  50  30  30  20  10  10   0   0  61  61  51  32  32  22  63  63  63  63  54  54  45  36  36  36  28  28  22  
72  64  57  50  58  58  58  58  36  36  36  36  32  30  63  63  54  36  28  22  22  61  41  32  32  22  14  14  10  10  50  50  50  50  30  30  20  10  10   0   0  61  61  51  32  32  22  63  63  63  63  54  54  45  36  36  36  28  28  22  
50  51  54  58  41  41  41  41  57  57  57  57  64  72  30  30  32  42  50  58  58  20  28  36  36  45  54  54  63  63  14  14  14  14  32  32  41  51  51  61  61   0   0  10  30  30  40  10  10  10  10  14  14  22  32  32  32  41  41  51  
50  51  54  58  41  41  41  41  57  57  57  57  64  72  30  30  32  42  50  58  58  20  28  36  36  45  54  54  63  63  14  14  14  14  32  32  41  51  51  61  61   0   0  10  30  30  40  10  10  10  10  14  14  22  32  32  32  41  41  51  
51  50  51  54  40  40  40  40  50  50  50  50  57  64  32  32  30  36  42  50  50  22  22  28  28  36  45  45  54  54  10  10  10  10  22  22  32  41  41  51  51  10  10   0  20  20  30  14  14  14  14  10  10  14  22  22  22  32  32  41  
58  54  51  50  45  45  45  45  41  41  41  41  45  50  42  42  36  30  32  36  36  36  22  20  20  22  28  28  36  36  22  22  22  22  10  10  14  22  22  32  32  30  30  20   0   0  10  32  32  32  32  22  22  14  10  10  10  14  14  22  
58  54  51  50  45  45  45  45  41  41  41  41  45  50  42  42  36  30  32  36  36  36  22  20  20  22  28  28  36  36  22  22  22  22  10  10  14  22  22  32  32  30  30  20   0   0  10  32  32  32  32  22  22  14  10  10  10  14  14  22  
64  58  54  51  50  50  50  50  40  40  40  40  41  45  50  50  42  32  30  32  32  45  28  22  22  20  22  22  28  28  32  32  32  32  14  14  10  14  14  22  22  40  40  30  10  10   0  41  41  41  41  32  32  22  14  14  14  10  10  14  
60  61  63  67  51  51  51  51  64  64  64  64  71  78  40  40  41  50  57  64  64  30  36  42  42  50  58  58  67  67  22  22  22  22  36  36  45  54  54  63  63  10  10  14  32  32  41   0   0   0   0  10  10  20  30  30  30  40  40  50  
60  61  63  67  51  51  51  51  64  64  64  64  71  78  40  40  41  50  57  64  64  30  36  42  42  50  58  58  67  67  22  22  22  22  36  36  45  54  54  63  63  10  10  14  32  32  41   0   0   0   0  10  10  20  30  30  30  40  40  50  
60  61  63  67  51  51  51  51  64  64  64  64  71  78  40  40  41  50  57  64  64  30  36  42  42  50  58  58  67  67  22  22  22  22  36  36  45  54  54  63  63  10  10  14  32  32  41   0   0   0   0  10  10  20  30  30  30  40  40  50  
60  61  63  67  51  51  51  51  64  64  64  64  71  78  40  40  41  50  57  64  64  30  36  42  42  50  58  58  67  67  22  22  22  22  36  36  45  54  54  63  63  10  10  14  32  32  41   0   0   0   0  10  10  20  30  30  30  40  40  50  
61  60  61  63  50  50  50  50  58  58  58  58  64  71  41  41  40  45  50  57  57  32  32  36  36  42  50  50  58  58  20  20  20  20  28  28  36  45  45  54  54  14  14  10  22  22  32  10  10  10  10   0   0  10  20  20  20  30  30  40  
61  60  61  63  50  50  50  50  58  58  58  58  64  71  41  41  40  45  50  57  57  32  32  36  36  42  50  50  58  58  20  20  20  20  28  28  36  45  45  54  54  14  14  10  22  22  32  10  10  10  10   0   0  10  20  20  20  30  30  40  
63  61  60  61  51  51  51  51  54  54  54  54  58  64  45  45  41  41  45  50  50  36  30  32  32  36  42  42  50  50  22  22  22  22  22  22  28  36  36  45  45  22  22  14  14  14  22  20  20  20  20  10  10   0  10  10  10  20  20  30  
67  63  61  60  54  54  54  54  51  51  51  51  54  58  50  50  45  40  41  45  45  42  32  30  30  32  36  36  42  42  28  28  28  28  20  20  22  28  28  36  36  32  32  22  10  10  14  30  30  30  30  20  20  10   0   0   0  10  10  20  
67  63  61  60  54  54  54  54  51  51  51  51  54  58  50  50  45  40  41  45  45  42  32  30  30  32  36  36  42  42  28  28  28  28  20  20  22  28  28  36  36  32  32  22  10  10  14  30  30  30  30  20  20  10   0   0   0  10  10  20  
67  63  61  60  54  54  54  54  51  51  51  51  54  58  50  50  45  40  41  45  45  42  32  30  30  32  36  36  42  42  28  28  28  28  20  20  22  28  28  36  36  32  32  22  10  10  14  30  30  30  30  20  20  10   0   0   0  10  10  20  
72  67  63  61  58  58  58  58  50  50  50  50  51  54  57  57  50  41  40  41  41  50  36  32  32  30  32  32  36  36  36  36  36  36  22  22  20  22  22  28  28  41  41  32  14  14  10  40  40  40  40  30  30  20  10  10  10   0   0  10  
72  67  63  61  58  58  58  58  50  50  50  50  51  54  57  57  50  41  40  41  41  50  36  32  32  30  32  32  36  36  36  36  36  36  22  22  20  22  22  28  28  41  41  32  14  14  10  40  40  40  40  30  30  20  10  10  10   0   0  10  
78  72  67  63  64  64  64  64  51  51  51  51  50  51  64  64  57  45  41  40  40  58  42  36  36  32  30  30  32  32  45  45  45  45  28  28  22  20  20  22  22  51  51  41  22  22  14  50  50  50  50  40  40  30  20  20  20  10  10   0  

 0  38  27  22   0  31  10  49   7  39  29  31  22  38  29  16  39  31  29  36  10  19  47  24  39  16  31  39  29  29  17  48  37  33  50  39  30  31  24  30  31  32  37  28  27  32  34  39  34  27  24  15  29  29  43  20  19  52  31  27  
 0   0  21  29  25  29  22  26  21  29  29  27  40  17  27  31  27  25  29  29  33  29  16  30  29  34  29  24  43  29  41  25  40  42  28  31  24  18  41  29  29  34  34  39  38  27  32  29  35  36  37  28  26  29  20  46  23  20  34  21  
 0   0   0  29  33  29  21  27  19  29  29  29  29  29  29  29  25  39  29  29  21  29  27  29  29  31  31  29  37  29  37  29  27  31  39  29  19  31  37  29  23  29  29  31  35  21  29  29  29  31  37  37  29  29  29  29  29  31  27  21  
 0   0   0   0  22  36  29  36  22  29  36  22  29  29  36  22  29  36  22  29  36  29  29  29  22  29  29  22  29  29  29  29  36  29  29  29  29  29  29  29  29  22  29  29  29  36  29  29  29  43  29  22  29  29  22  22  36  36  29  29  
 0   0   0   0   0  31  12  46   9  29  29  28  27  25  34  16  43  31  24  26  23  29  21  27  39  34  29  29  34  34  15  43  29  37  38  39  40  34  34  32  37  37  24  34  37  22  47  31  29  32  19  17  26  29  41  28  19  43  31  22  
 0   0   0   0   0   0  29  29  36  39  23  46  44  24  39  29  35  12  33  55  14  24  40  16  35  19  23  24  19  19  29  44  39  24  49  29  24  39  38  35  35  24  29  29  28  17  43  19  14  32  40  21  34  29  29  29  25  39  19  30  
 0   0   0   0   0   0   0  48  21  39  29  20  19  30  29  29  29  19  19  29  10  19  31  28  29  19  29  29  47  39  28  48  39  37  46  29  39  29  37  29  29  29  39  37  45  12  27  31  39  20  27  19  21  29  38  28  29  48  39  21  
 0   0   0   0   0   0   0   0  30  19  16  27  13  25  22  39  35  44  35  28  41  39  35  48  42  36  25  41  18  31  38  10   4  31  12  29  24  37  39  32  37  28  19  34  26  43  23  23  23  33  28  42  29  36  24  45  24   0  30  32  
 0   0   0   0   0   0   0   0   0  29  29  22  23  29  29  16  39  49  29  26  21  29  37  33  39  31  31  39  37  29  37  29  27  31  39  39  22  31  37  32  23  32  29  28  35  28  39  40  29  38  27  33  29  29  32  29  19  31  24  14  
 0   0   0   0   0   0   0   0   0   0  21  29  29  29  36  29  21  39  14  27  39  39  19  29  22  47  29  29  36  29  21  20  19  29  19  29  29  29  29  37  29  29  19  22  44  29  29  29  28  29  29  32  21  21  29  37  29  19  29  44  
 0   0   0   0   0   0   0   0   0   0   0  29  29  29  22  36  27  29  22  43  22  29  35  30  42  37  23  36  29  29  21  37  22  29  29  29  29  29  29  43  35  36  29  29  37  29  23  29  21  22  35  29  21  21  36  44  22  22  29  43  
 0   0   0   0   0   0   0   0   0   0   0   0  21   7  29  29  29  28  19  19  51  29  19  63  29  24  29  34  39  32  43  15  24  32  10  29  52  34  19  29  37  24  24  37  42  50  32  31  39  45  26   9  16  22  20  46  29  20  34  29  
 0   0   0   0   0   0   0   0   0   0   0   0   0  29  24  22  39  32  19  22  34  29  51  43  39  29  29  44  33  46  34  24  23  29  19  39  36  30  30  26  29  26  34  32  34  29  29  42  33  24   2  32  24  36  26  29  25  29  37  16  
 0   0   0   0   0   0   0   0   0   0   0   0   0   0  34  39  29  21  24  39  46  34   6  61  29  29  19  24  34  34  38  20  19  32  20  39  42  34  14  29  37  29  34  37  52  43  42  21  29  43  29  16  21  29  20  46  19  25  29  29  
 0   0   0   0   0   0   0   0   0   0   0   0   0   0   0  38  27  31  43  29  27  24  34  36  43  34  29  41  22  29  34  31  22  34  29  31  24  19  29  29  29  41  39  38  25  31  24  31  22  10  29  41  24  29  36  36  22  22  24  22  
 0   0   0   0   0   0   0   0   0   0   0   0   0   0   0   0  41  30  22  16  36  29  49   9  32  29  39  32  29  29  29  29  46  29  29  27  32  29  39  32  29  25  19  24  21  17  39  37  29  38  19  32  29  29  25  22  36  36  26  22  
 0   0   0   0   0   0   0   0   0   0   0   0   0   0   0   0   0  31  27  31  29  29  13  35  13  37  35  19  29  29  21  37  29  29  29  21  29  29  29  31  23  29  29  31  35  31  25  21  21  27  33  29  21  21  29  37  39  29  29  41  
 0   0   0   0   0   0   0   0   0   0   0   0   0   0   0   0   0   0  29  42  35  19  33  27  29  17  27  29  27  29  21  39  47  35  29  27  44  21  15  26  43  26  39  36  33  28  37  25  35  22  21   1  21  29  26  37  23  37  34  34  
 0   0   0   0   0   0   0   0   0   0   0   0   0   0   0   0   0   0   0  33  36  29  30  16  21  42  23  17  51  44  21  30  36  29  19  29  39  29  29  43  35  27  29  22  49  24  13  39  38  36  25  22  21  21  22  30  36  41  39  50  
 0   0   0   0   0   0   0   0   0   0   0   0   0   0   0   0   0   0   0   0  39  39  23  22  23  31  45  29  39  39  37  11  29  29   9  19  42  29  39  18  23  32   9  26  11  19  25  39  47  29  13  42  37  37  32  21  39  19  36  18  
 0   0   0   0   0   0   0   0   0   0   0   0   0   0   0   0   0   0   0   0   0  19  42  14  36  19  29  31  37  29  23  53  32  21  56  29  13  34  42  29  13  36  34  21  24  12  21  37  29  18  37  35  42  29  45  19  22  41  34  21  
 0   0   0   0   0   0   0   0   0   0   0   0   0   0   0   0   0   0   0   0   0   0  39  24  29  24  29  29  29  29  29  39  34  34  39  29  24  29  34  29  29  34  39  29  29  34  24  29  29  24  29  24  29  29  29  29  29  39  29  29  
 0   0   0   0   0   0   0   0   0   0   0   0   0   0   0   0   0   0   0   0   0   0   0  48  13  46  27   9  34  27  24  24   7  39  21  29  35  36  24  23  33  34  24  39  45  34  33  11  29  36  40  31  26  22  29  37  29  26  32  33  
 0   0   0   0   0   0   0   0   0   0   0   0   0   0   0   0   0   0   0   0   0   0   0   0  41  30  33  17  35  29  15  43  52  26  38  19  19  14  45  38  27  30  15  18   6   3  10  41  35  20  35  46  42  33  34   5  40  45  31  38  
 0   0   0   0   0   0   0   0   0   0   0   0   0   0   0   0   0   0   0   0   0   0   0   0   0  33  35  12  36  29  29  22  36  29  29  19  29  38  29  23  23  22  33  22  36  29  25  19  36  36  33  22  29  25  22  22  46  36  29  40  
 0   0   0   0   0   0   0   0   0   0   0   0   0   0   0   0   0   0   0   0   0   0   0   0   0   0  27  34  24  24  32  31  41  22  37  29  36  32  19  21  27  19  30  27  18  39  29  29  42  32  34  14  37  41  29  21  29  32  36  26  
 0   0   0   0   0   0   0   0   0   0   0   0   0   0   0   0   0   0   0   0   0   0   0   0   0   0   0  29  29  29  29  29  21  27  27  39  31  27  19  35  33  29  39  27  41  39  23  29  29  27  35  29  29  29  29  29  19  27  31  35  
 0   0   0   0   0   0   0   0   0   0   0   0   0   0   0   0   0   0   0   0   0   0   0   0   0   0   0   0  34  34  24  34  36  29  29  19  29  34  34  29  29  27  24  29  29  24  19  19  29  41  39  29  34  29  22  22  46  41  34  39  
 0   0   0   0   0   0   0   0   0   0   0   0   0   0   0   0   0   0   0   0   0   0   0   0   0   0   0   0   0  14  21  36  23  29  31  29  27  35  27  29  37  24  29  36   9  42  39  13   6  29  31  34  29  29  29  29  35  24  19  30  
 0   0   0   0   0   0   0   0   0   0   0   0   0   0   0   0   0   0   0   0   0   0   0   0   0   0   0   0   0   0  29  29  29  29  39  29  19  29  29  29  29  24  29  29  24  34  39  19  19  29  46  29  29  22  29  29  29  24  19  29  
 0   0   0   0   0   0   0   0   0   0   0   0   0   0   0   0   0   0   0   0   0   0   0   0   0   0   0   0   0   0   0  51  29  27  30  29  37  34  21  39  37  29  26  29  24  33  24  29  26  27  26  21  26  21  36  28  29  36  37  50  
 0   0   0   0   0   0   0   0   0   0   0   0   0   0   0   0   0   0   0   0   0   0   0   0   0   0   0   0   0   0   0   0  19  29  10  29  29  24  24  21  29  29  24  22  33  38  29  29  44  33  29  32  38  37  26  30  29  10  24  28  
 0   0   0   0   0   0   0   0   0   0   0   0   0   0   0   0   0   0   0   0   0   0   0   0   0   0   0   0   0   0   0   0   0  31  21  39  27  42  25  29  31  36  24  31  37  44  29  23  23  24  29  45  29  29  36  36  18  14  27  29  
 0   0   0   0   0   0   0   0   0   0   0   0   0   0   0   0   0   0   0   0   0   0   0   0   0   0   0   0   0   0   0   0   0   0  27  29  28  32  24  31  19  24  26  19  23  29  26  37  29  34  29  32  37  29  27  21  29  25  29  29  
 0   0   0   0   0   0   0   0   0   0   0   0   0   0   0   0   0   0   0   0   0   0   0   0   0   0   0   0   0   0   0   0   0   0   0  29  49  27  21  29  35  29  19  27  23  46  19  39  39  36  11  31  29  29  20  38  29   8  41  37  
 0   0   0   0   0   0   0   0   0   0   0   0   0   0   0   0   0   0   0   0   0   0   0   0   0   0   0   0   0   0   0   0   0   0   0   0  29  29  39  29  29  29  19  27  21  17  19  17  29  31  39  29  29  29  29  29  49  29  29  39  
 0   0   0   0   0   0   0   0   0   0   0   0   0   0   0   0   0   0   0   0   0   0   0   0   0   0   0   0   0   0   0   0   0   0   0   0   0  26  42  26  15  31  34  26  27  21  26  27  19  26  47  47  37  29  26  21  29  31  20  18  
 0   0   0   0   0   0   0   0   0   0   0   0   0   0   0   0   0   0   0   0   0   0   0   0   0   0   0   0   0   0   0   0   0   0   0   0   0   0  23  29  27  34  44  27  36  24  24  35  35  17  29  28  24  29  29  29  23  27  26  29  
 0   0   0   0   0   0   0   0   0   0   0   0   0   0   0   0   0   0   0   0   0   0   0   0   0   0   0   0   0   0   0   0   0   0   0   0   0   0   0  29  37  24  39  29  32  52  29  37  40  29  26  10  24  29  29  29  17  29  29  42  
 0   0   0   0   0   0   0   0   0   0   0   0   0   0   0   0   0   0   0   0   0   0   0   0   0   0   0   0   0   0   0   0   0   0   0   0   0   0   0   0  23  26  27  32  21  29  35  29  37  27  23  26  37  37  28  21  29  31  34  12  
 0   0   0   0   0   0   0   0   0   0   0   0   0   0   0   0   0   0   0   0   0   0   0   0   0   0   0   0   0   0   0   0   0   0   0   0   0   0   0   0   0  29  29  19  31  21  27  37  29  27  31  45  37  29  29  21  29  27  31  15  
 0   0   0   0   0   0   0   0   0   0   0   0   0   0   0   0   0   0   0   0   0   0   0   0   0   0   0   0   0   0   0   0   0   0   0   0   0   0   0   0   0   0  24  32  24  34  34  29  29  41  29  21  29  29  19  22  36  31  32  26  
 0   0   0   0   0   0   0   0   0   0   0   0   0   0   0   0   0   0   0   0   0   0   0   0   0   0   0   0   0   0   0   0   0   0   0   0   0   0   0   0   0   0   0  29  14  24  34  29  29  37  29  34  34  33  31  29  39  21  36  29  
 0   0   0   0   0   0   0   0   0   0   0   0   0   0   0   0   0   0   0   0   0   0   0   0   0   0   0   0   0   0   0   0   0   0   0   0   0   0   0   0   0   0   0   0  32  27  21  35  36  29  29  33  37  29  32  21  29  27  28  39  
 0   0   0   0   0   0   0   0   0   0   0   0   0   0   0   0   0   0   0   0   0   0   0   0   0   0   0   0   0   0   0   0   0   0   0   0   0   0   0   0   0   0   0   0   0  34  21  39  30  34  21  36  50  37  29  13  43  26  32  22  
 0   0   0   0   0   0   0   0   0   0   0   0   0   0   0   0   0   0   0   0   0   0   0   0   0   0   0   0   0   0   0   0   0   0   0   0   0   0   0   0   0   0   0   0   0   0  34  27  24  15  32  44  29  29  38  20  39  43  24  16  
 0   0   0   0   0   0   0   0   0   0   0   0   0   0   0   0   0   0   0   0   0   0   0   0   0   0   0   0   0   0   0   0   0   0   0   0   0   0   0   0   0   0   0   0   0   0   0  37  44  24  40  42  37  29  29  21  39  29  44  50  
 0   0   0   0   0   0   0   0   0   0   0   0   0   0   0   0   0   0   0   0   0   0   0   0   0   0   0   0   0   0   0   0   0   0   0   0   0   0   0   0   0   0   0   0   0   0   0   0  13  31  49  27  21  29  29  37  45  29  19  39  
 0   0   0   0   0   0   0   0   0   0   0   0   0   0   0   0   0   0   0   0   0   0   0   0   0   0   0   0   0   0   0   0   0   0   0   0   0   0   0   0   0   0   0   0   0   0   0   0   0  29  34  42  21  21  29  37  35  29  14  25  
 0   0   0   0   0   0   0   0   0   0   0   0   0   0   0   0   0   0   0   0   0   0   0   0   0   0   0   0   0   0   0   0   0   0   0   0   0   0   0   0   0   0   0   0   0   0   0   0   0   0  29  41  24  29  47  27  22  31  28  29  
 0   0   0   0   0   0   0   0   0   0   0   0   0   0   0   0   0   0   0   0   0   0   0   0   0   0   0   0   0   0   0   0   0   0   0   0   0   0   0   0   0   0   0   0   0   0   0   0   0   0   0  21  29  36  29  29  19  29  34  16  
 0   0   0   0   0   0   0   0   0   0   0   0   0   0   0   0   0   0   0   0   0   0   0   0   0   0   0   0   0   0   0   0   0   0   0   0   0   0   0   0   0   0   0   0   0   0   0   0   0   0   0   0  21  29  26  37  23  39  32  41  
 0   0   0   0   0   0   0   0   0   0   0   0   0   0   0   0   0   0   0   0   0   0   0   0   0   0   0   0   0   0   0   0   0   0   0   0   0   0   0   0   0   0   0   0   0   0   0   0   0   0   0   0   0  21  23  45  29  29  24  37  
 0   0   0   0   0   0   0   0   0   0   0   0   0   0   0   0   0   0   0   0   0   0   0   0   0   0   0   0   0   0   0   0   0   0   0   0   0   0   0   0   0   0   0   0   0   0   0   0   0   0   0   0   0   0  29  37  29  29  29  37  
 0   0   0   0   0   0   0   0   0   0   0   0   0   0   0   0   0   0   0   0   0   0   0   0   0   0   0   0   0   0   0   0   0   0   0   0   0   0   0   0   0   0   0   0   0   0   0   0   0   0   0   0   0   0   0  31  36  25  30  26  
 0   0   0   0   0   0   0   0   0   0   0   0   0   0   0   0   0   0   0   0   0   0   0   0   0   0   0   0   0   0   0   0   0   0   0   0   0   0   0   0   0   0   0   0   0   0   0   0   0   0   0   0   0   0   0   0  36  45  29  21  
 0   0   0   0   0   0   0   0   0   0   0   0   0   0   0   0   0   0   0   0   0   0   0   0   0   0   0   0   0   0   0   0   0   0   0   0   0   0   0   0   0   0   0   0   0   0   0   0   0   0   0   0   0   0   0   0   0  22  29  19  
 0   0   0   0   0   0   0   0   0   0   0   0   0   0   0   0   0   0   0   0   0   0   0   0   0   0   0   0   0   0   0   0   0   0   0   0   0   0   0   0   0   0   0   0   0   0   0   0   0   0   0   0   0   0   0   0   0   0  29  29  
 0   0   0   0   0   0   0   0   0   0   0   0   0   0   0   0   0   0   0   0   0   0   0   0   0   0   0   0   0   0   0   0   0   0   0   0   0   0   0   0   0   0   0   0   0   0   0   0   0   0   0   0   0   0   0   0   0   0   0  27  
 0   0   0   0   0   0   0   0   0   0   0   0   0   0   0   0   0   0   0   0   0   0   0   0   0   0   0   0   0   0   0   0   0   0   0   0   0   0   0   0   0   0   0   0   0   0   0   0   0   0   0   0   0   0   0   0   0   0   0   0  
